molecule {
    0 1
    H  0.0  0.0  0.0
    H  0.0  0.0  0.74
}

set basis sto-3g
energy('hf')
